(declare-fun bvlambda_20_ ()Bool         )
(declare-fun bvlambda_21_ () (_ BitVec 3))
(declare-fun bvlambda_22_ ()Bool         )
(declare-fun bvlambda_23_ () (_ BitVec 2))
(declare-fun bvlambda_24_ () (_ BitVec 4))
(declare-fun a69 () (Array (_ BitVec 1) (_ BitVec 5)))
(assert
(let (($e1 false    ))
(let (($e7 (_ bv2046 11)))
(let (($e16 (_ bv0 9)))
(let (($e17 (_ bv0 4)))
(let (($e18 false    ))
(let (($e117                $e16               ))
(let (($e118         $e117              ))
(let (($e119         $e118              ))
(let (($e120                           $e119       ))
(let (($e121                    $e120 ))
(let (($e123                             $e121  ))
(let (($e124 ((_ extract 5 1) $e123)))
(let (($e125 (store a69 $e1        $e124 )))
(let (($e126        $e125                 ))
(let (($e140 (concat bvlambda_20_ bvlambda_21_)))
(let (($e141 (concat $e140 bvlambda_22_)))
(let (($e142 (concat $e141 bvlambda_23_)))
(let (($e143 (concat $e142 bvlambda_24_)))
(let (($e144 (bvadd (bvnot $e7)        $e143 )))
(let (($e213               $e123        ))
(let (($e242                          #b1     ))
(let (($e266 (concat        $e17  $e242)))
(let (($e267                    $e266       ))
(let (($e268 (   extract      $e144)))
(let (($e269 (store a69 $e268 $e267)))
(let (($e270 (select $e269 true       )))
(let (($e295 false             ))
(let (($e364        $e126                           ))
(let (($e365 (select $e364 bvlambda_22_)))
(let (($e597               $e270                ))
(let (($e692 (concat $e17 $e295)))
(let (($e694                          $e692 ))
(let (($e695      (= $e365 $e694)         ))
(let (($e696               $e695        ))
(let (($e708 ((_ extract 4 0) $e213)))
(let (($e709      (= $e597 $e708)         ))
(let (($e712              $e709 ))
(let (($e713        (bvnot $e712)               ))
(let (($e715                      (bvnot $e713) ))
             (bvand (bvnot $e715)        $e696 )
                                                                                                                                                                                                                                                                                                                                                                                                                                                                                                                                                                        ) ))  ))           ))) )                                                                                              )                                                                                                                                                                                                                                       ))                                                                    )                        )))))                       )                            )                                                                    )))))             )))) )))))                                                                        )))        )     ))
